
Gurobi 9.5.0 (linux64) logging started Tue Nov  7 13:15:34 2023

Set parameter LogFile to value "/lustre1/scratch/348/vsc34888/JointResearch/05.Models/06.Benchmarking/D.Representative_days_based_on_RES_and_Demand/9n_ByStages_nc80/openStarNet_9n_ByStages_nc80.log"
Set parameter Method to value 2
Set parameter MIPFocus to value 1
Set parameter Presolve to value 2
Set parameter RINS to value 100
Set parameter MIPGap to value 0.01
Set parameter Threads to value 36
Set parameter TimeLimit to value 604800
Set parameter IterationLimit to value 760000000
Gurobi Optimizer version 9.5.0 build v9.5.0rc5 (linux64)
Thread count: 36 physical cores, 36 logical processors, using up to 36 threads
Optimize a model with 22106 rows, 11522 columns and 65975 nonzeros
Model fingerprint: 0x514ed3f7
Variable types: 11486 continuous, 36 integer (36 binary)
Coefficient statistics:
  Matrix range     [8e-04, 2e+03]
  Objective range  [1e+00, 1e+00]
  Bounds range     [4e-04, 2e+00]
  RHS range        [4e-04, 1e+00]
Presolve removed 7946 rows and 3825 columns
Presolve time: 0.07s
Presolved: 14160 rows, 7697 columns, 50141 nonzeros
Variable types: 7661 continuous, 36 integer (36 binary)
Found heuristic solution: objective 739.5604615
Root relaxation presolved: 14160 rows, 7697 columns, 50141 nonzeros

Root barrier log...

Ordering time: 0.01s

Barrier statistics:
 Dense cols : 36
 AA' NZ     : 1.906e+05
 Factor NZ  : 3.883e+05 (roughly 12 MB of memory)
 Factor Ops : 1.624e+07 (less than 1 second per iteration)
 Threads    : 36

                  Objective                Residual
Iter       Primal          Dual         Primal    Dual     Compl     Time
   0   3.74421086e+05 -3.03501143e+07  6.31e+00 1.75e+02  3.29e+03     0s
   1   5.30306683e+04 -8.68272892e+06  6.89e-01 4.93e-10  4.27e+02     0s
   2   1.28367022e+04 -1.17007264e+06  9.48e-03 6.58e-10  4.28e+01     0s
   3   4.23907813e+03 -2.29685828e+04  1.99e-06 7.42e-12  9.76e-01     0s
   4   8.33554745e+02 -4.69037586e+03  1.97e-09 1.46e-12  1.98e-01     0s
   5   5.43598682e+02 -1.34239043e+03  5.36e-10 9.09e-13  6.77e-02     0s
   6   3.64641991e+02 -6.27850611e+02  2.58e-10 9.09e-13  3.56e-02     0s
   7   2.11458245e+02 -2.63089655e+02  1.00e-10 4.55e-13  1.70e-02     0s
   8   1.25403133e+02 -9.70426640e+00  2.55e-11 6.82e-13  4.85e-03     0s
   9   1.12385329e+02  5.59330104e+01  1.71e-11 9.09e-13  2.03e-03     0s
  10   9.60055960e+01  6.99683248e+01  6.40e-12 4.55e-13  9.34e-04     0s
  11   8.93310357e+01  8.05192623e+01  2.72e-12 9.09e-13  3.16e-04     0s
  12   8.67860517e+01  8.38463096e+01  4.94e-12 9.09e-13  1.05e-04     0s
  13   8.64794559e+01  8.47199357e+01  1.91e-11 4.55e-13  6.31e-05     0s
  14   8.63053775e+01  8.50198790e+01  2.89e-10 9.09e-13  4.61e-05     0s
  15   8.56098310e+01  8.50790158e+01  8.55e-11 4.55e-13  1.90e-05     0s
  16   8.56079009e+01  8.52356970e+01  4.77e-10 4.55e-13  1.34e-05     0s
  17   8.55114054e+01  8.54199923e+01  2.17e-08 4.55e-13  3.28e-06     0s
  18   8.54831685e+01  8.54770539e+01  2.21e-09 9.09e-13  2.19e-07     0s
  19   8.54793849e+01  8.54793788e+01  1.79e-09 9.09e-13  2.20e-10     0s
  20   8.54793812e+01  8.54793812e+01  3.38e-10 9.09e-13  4.79e-16     0s

Barrier solved model in 20 iterations and 0.45 seconds (0.29 work units)
Optimal objective 8.54793812e+01


Root relaxation: objective 8.547938e+01, 600 iterations, 0.34 seconds (0.18 work units)

    Nodes    |    Current Node    |     Objective Bounds      |     Work
 Expl Unexpl |  Obj  Depth IntInf | Incumbent    BestBd   Gap | It/Node Time

     0     0   85.47938    0    6  739.56046   85.47938  88.4%     -    0s
H    0     0                     652.2202970   85.47938  86.9%     -    0s
H    0     0                      95.7459666   94.81580  0.97%     -    0s
     0     0   94.81580    0    1   95.74597   94.81580  0.97%     -    0s

Cutting planes:
  MIR: 137

Explored 1 nodes (1017 simplex iterations) in 0.71 seconds (0.44 work units)
Thread count was 36 (of 36 available processors)

Solution count 3: 95.746 652.22 739.56 

Optimal solution found (tolerance 1.00e-02)
Best objective 9.574596661457e+01, best bound 9.481579544635e+01, gap 0.9715%

Gurobi 9.5.0 (linux64) logging started Tue Nov  7 13:15:37 2023

Set parameter LogFile to value "/lustre1/scratch/348/vsc34888/JointResearch/05.Models/06.Benchmarking/D.Representative_days_based_on_RES_and_Demand/9n_ByStages_nc80/openStarNet_9n_ByStages_nc80.log"
Set parameter Method to value 2
Set parameter MIPFocus to value 1
Set parameter Presolve to value 2
Set parameter RINS to value 100
Set parameter MIPGap to value 0.01
Set parameter Threads to value 36
Set parameter TimeLimit to value 604800
Set parameter IterationLimit to value 760000000
No parameters matching 'relax_integrality' found
Gurobi Optimizer version 9.5.0 build v9.5.0rc5 (linux64)
Thread count: 36 physical cores, 36 logical processors, using up to 36 threads
Optimize a model with 22106 rows, 11486 columns and 54419 nonzeros
Model fingerprint: 0x5725244c
Coefficient statistics:
  Matrix range     [8e-04, 2e+03]
  Objective range  [1e+00, 1e+00]
  Bounds range     [4e-04, 2e+00]
  RHS range        [4e-04, 2e+01]
Presolve removed 19226 rows and 6465 columns
Presolve time: 0.02s
Presolved: 2880 rows, 5021 columns, 11021 nonzeros

Ordering time: 0.00s

Barrier statistics:
 AA' NZ     : 8.080e+03
 Factor NZ  : 2.960e+04 (roughly 3 MB of memory)
 Factor Ops : 3.646e+05 (less than 1 second per iteration)
 Threads    : 1

                  Objective                Residual
Iter       Primal          Dual         Primal    Dual     Compl     Time
   0   4.12958725e+05 -1.76719411e+07  4.09e+00 4.55e-13  3.85e+03     0s
   1   6.16727333e+04 -3.50606930e+06  4.36e-01 2.45e-12  4.61e+02     0s
   2   1.53462619e+04 -5.91089414e+05  1.67e-02 2.57e-12  5.69e+01     0s
   3   4.73347833e+03 -2.17920419e+04  1.69e-04 1.82e-12  2.41e+00     0s
   4   8.98040469e+02 -3.77463653e+03  3.41e-08 9.09e-13  4.25e-01     0s
   5   4.69573949e+02 -9.49934212e+02  1.59e-09 4.55e-13  1.29e-01     0s
   6   2.98382645e+02 -4.15749792e+02  7.06e-10 9.09e-13  6.49e-02     0s
   7   1.75679816e+02 -9.02051718e+01  2.08e-10 9.09e-13  2.42e-02     0s
   8   1.12063265e+02  4.54370375e+01  2.38e-11 9.09e-13  6.06e-03     0s
   9   1.00092951e+02  8.45537491e+01  5.45e-12 9.09e-13  1.41e-03     0s
  10   9.66785045e+01  9.18478219e+01  1.03e-12 9.09e-13  4.39e-04     0s
  11   9.59750226e+01  9.52139520e+01  2.88e-12 9.09e-13  6.92e-05     0s
  12   9.57821879e+01  9.55834796e+01  3.57e-12 9.09e-13  1.81e-05     0s
  13   9.57467167e+01  9.57442354e+01  5.77e-12 9.09e-13  2.26e-07     0s
  14   9.57459674e+01  9.57459649e+01  1.43e-12 9.09e-13  2.26e-10     0s
  15   9.57459666e+01  9.57459666e+01  1.44e-12 1.36e-12  2.26e-13     0s

Barrier solved model in 15 iterations and 0.05 seconds (0.05 work units)
Optimal objective 9.57459666e+01

Crossover log...

     943 DPushes remaining with DInf 0.0000000e+00                 0s
       0 DPushes remaining with DInf 0.0000000e+00                 0s

      92 PPushes remaining with PInf 0.0000000e+00                 0s
       0 PPushes remaining with PInf 0.0000000e+00                 0s

  Push phase complete: Pinf 0.0000000e+00, Dinf 1.2449070e-13      0s

Iteration    Objective       Primal Inf.    Dual Inf.      Time
     151    9.5745967e+01   0.000000e+00   0.000000e+00      0s

Solved in 151 iterations and 0.07 seconds (0.05 work units)
Optimal objective  9.574596661e+01
